GLPSOL--GLPK LP/MIP Solver 5.0
Parameter(s) specified in the command line:
 --lp ../modeles/20_54.lp --log 20_54.log
Reading problem data from '../modeles/20_54.lp'...
1161 rows, 2200 columns, 7620 non-zeros
1080 integer variables, all of which are binary
3387 lines were read
GLPK Integer Optimizer 5.0
1161 rows, 2200 columns, 7620 non-zeros
1080 integer variables, all of which are binary
Preprocessing...
1080 constraint coefficient(s) were reduced
1161 rows, 2180 columns, 7600 non-zeros
1080 integer variables, all of which are binary
Scaling...
 A: min|aij| =  5.487e-03  max|aij| =  4.000e+00  ratio =  7.290e+02
GM: min|aij| =  1.925e-01  max|aij| =  5.196e+00  ratio =  2.700e+01
EQ: min|aij| =  3.704e-02  max|aij| =  1.000e+00  ratio =  2.700e+01
2N: min|aij| =  3.125e-02  max|aij| =  1.653e+00  ratio =  5.290e+01
Constructing initial basis...
Size of triangular part is 1161
Solving LP relaxation...
GLPK Simplex Optimizer 5.0
1161 rows, 2180 columns, 7600 non-zeros
      0: obj =   4.000000000e+01 inf =   9.950e+01 (41)
    179: obj =  -1.837921542e+00 inf =   0.000e+00 (0)
*   529: obj =  -4.468253968e+00 inf =   2.498e-15 (0) 1
OPTIMAL LP SOLUTION FOUND
Integer optimization begins...
Long-step dual simplex will be used
+   529: mip =     not found yet >=              -inf        (1; 0)
+   530: >>>>>  -4.468253968e+00 >=  -4.468253968e+00   0.0% (2; 0)
+   530: mip =  -4.468253968e+00 >=     tree is empty   0.0% (0; 3)
INTEGER OPTIMAL SOLUTION FOUND
Time used:   0.0 secs
Memory used: 3.4 Mb (3528758 bytes)
